(declare-const a Real)
(declare-const b Real)
(declare-const c Real)
(assert (= (* a b c) 1))
(assert (> a 0))
(assert (> b 0))
(assert (> c 0))
(assert (not (<= (+ (* -373 (pow b 4)) (* -269 (pow a 4)) (* (pow (+ 234 (* 432 (pow a (/ 5 3)) (pow b (/ 7 3))) (* 740 a (pow b 3))) -3) (pow (+ (* 117 a) (* 117 b) (* 432 (pow a (/ 5 3)) (pow b (/ 7 3))) (* 740 a (pow b 3))) 4)) (* -576 (pow a (pow 3 -1)) (pow b (/ 11 3))) (* -288 (pow a (/ 10 3)) (pow b (/ 2 3))) (* 100 b (pow a 3))) 0)))
(check-sat)
(get-model)
(exit)